solution status: optimal solution found
objective value:                                    0
shell_j_$_62__1                                     1 	(obj:0)
shell_j_$_23__1                                     1 	(obj:0)
shell_i_$_33__1                                     1 	(obj:0)
shell_j_$_33__1                                     1 	(obj:0)
shell_j_$_59__1                                     1 	(obj:0)
shell_j_$_149__1                                    1 	(obj:0)
shell_i_$_142__1                                    1 	(obj:0)
shell_j_$_172__1                                    1 	(obj:0)
shell_i_$_137__1                                    1 	(obj:0)
shell_i_thingy.thingy.chamber[3].first.ring__1                    1 	(obj:0)
shell_i_$_156__1                                    1 	(obj:0)
shell_j_$_63__1                                     1 	(obj:0)
shell_i_$_188__1                                    1 	(obj:0)
shell_j_$_29__1                                     1 	(obj:0)
shell_i_$_44__1                                     1 	(obj:0)
shell_j_thingy.ctrl_stage_in_hole                    1 	(obj:0)
shell_j_$_46__1                                     1 	(obj:0)
shell_j_$_25__1                                     1 	(obj:0)
shell_i_$_158__1                                    1 	(obj:0)
shell_j_$_35__1                                     1 	(obj:0)
shell_j_$_56__1                                     1 	(obj:0)
shell_j_$_152__1                                    1 	(obj:0)
shell_i_$_65__1                                     1 	(obj:0)
shell_j_$_147__1                                    1 	(obj:0)
shell_i_$_160__1                                    1 	(obj:0)
shell_j_thingy.flush_stage_in_hole                    1 	(obj:0)
shell_i_$_30__1                                     1 	(obj:0)
shell_i_$_171__1                                    1 	(obj:0)
shell_j_thingy.ctrl_stage_out_hole                    1 	(obj:0)
shell_j_$_134__1                                    1 	(obj:0)
shell_i_$_139__1                                    1 	(obj:0)
shell_j_$_27__1                                     1 	(obj:0)
shell_i_$_163__1                                    1 	(obj:0)
shell_j_$_24__1                                     1 	(obj:0)
shell_j_$_50__1                                     1 	(obj:0)
shell_j_$_64__1                                     1 	(obj:0)
shell_j_thingy.thingy.prep.ring__1                    1 	(obj:0)
shell_j_$_138__1                                    1 	(obj:0)
shell_j_$_168__1                                    1 	(obj:0)
shell_j_$_34__1                                     1 	(obj:0)
shell_j_$_36__1                                     1 	(obj:0)
shell_i_$_45__1                                     1 	(obj:0)
shell_j_$_130__1                                    1 	(obj:0)
shell_j_$_37__1                                     1 	(obj:0)
shell_i_$_51__1                                     1 	(obj:0)
shell_j_$_55__1                                     1 	(obj:0)
shell_j_$_151__1                                    1 	(obj:0)
shell_i_$_157__1                                    1 	(obj:0)
shell_j_$_189__1                                    1 	(obj:0)
shell_j_$_176__1                                    1 	(obj:0)
shell_i_$_28__1                                     1 	(obj:0)
shell_j_$_28__1                                     1 	(obj:0)
shell_j_$_165__1                                    1 	(obj:0)
shell_i_$_170__1                                    1 	(obj:0)
shell_j_$_170__1                                    1 	(obj:0)
shell_i_$_141__1                                    1 	(obj:0)
shell_j_$_43__1                                     1 	(obj:0)
shell_j_$_61__1                                     1 	(obj:0)
shell_j_$_57__1                                     1 	(obj:0)
shell_j_$_135__1                                    1 	(obj:0)
shell_j_$_22__1                                     1 	(obj:0)
shell_j_$_41__1                                     1 	(obj:0)
shell_i_$_154__1                                    1 	(obj:0)
shell_j_$_49__1                                     1 	(obj:0)
shell_j_thingy.thingy.chamber[1].first.ring__1                    1 	(obj:0)
shell_j_$_132__1                                    1 	(obj:0)
shell_j_thingy.flush_stage_out_hole                    1 	(obj:0)
shell_j_$_26__1                                     1 	(obj:0)
shell_j_$_48__1                                     1 	(obj:0)
shell_j_$_140__1                                    1 	(obj:0)
shell_j_$_42__1                                     1 	(obj:0)
shell_j_$_144__1                                    1 	(obj:0)
shell_j_$_167__1                                    1 	(obj:0)
shell_j_$_39__1                                     1 	(obj:0)
shell_j_$_40__1                                     1 	(obj:0)
shell_i_$_155__1                                    1 	(obj:0)
shell_j_thingy.thingy.chamber[0].first.ring__1                    1 	(obj:0)
shell_i_$_52__1                                     1 	(obj:0)
shell_j_$_58__1                                     1 	(obj:0)
shell_j_$_173__1                                    1 	(obj:0)
shell_j_thingy.thingy.chamber[2].first.ring__1                    1 	(obj:0)
shell_j_$_47__1                                     1 	(obj:0)
shell_j_$_174__1                                    1 	(obj:0)
$_24__1_x                                           1 	(obj:0)
$_24__1_y                                           3 	(obj:0)
$_24__1_z                                          22 	(obj:0)
$_142__1_x                                          3 	(obj:0)
$_44__1_x                                          -3 	(obj:0)
$_50__1_x                                          -3 	(obj:0)
$_50__1_y                                          -3 	(obj:0)
$_50__1_z                                          21 	(obj:0)
$_44__1_y                                          -3 	(obj:0)
$_44__1_z                                          16 	(obj:0)
$_64__1_x                                          -2 	(obj:0)
$_64__1_y                                           3 	(obj:0)
$_64__1_z                                           5 	(obj:0)
$_142__1_y                                          1 	(obj:0)
$_142__1_z                                         10 	(obj:0)
thingy.thingy.prep.ring__1_x                       -3 	(obj:0)
thingy.thingy.prep.ring__1_y                       -3 	(obj:0)
thingy.thingy.prep.ring__1_z                       13 	(obj:0)
thingy.ctrl_stage_in_hole_y                        -3 	(obj:0)
$_138__1_x                                          3 	(obj:0)
$_138__1_y                                         -3 	(obj:0)
$_138__1_z                                         16 	(obj:0)
thingy.ctrl_stage_in_hole_z                         6 	(obj:0)
$_33__1_x                                          -3 	(obj:0)
$_168__1_x                                         -3 	(obj:0)
$_168__1_y                                         -3 	(obj:0)
$_168__1_z                                         11 	(obj:0)
$_33__1_y                                          -3 	(obj:0)
$_46__1_x                                          -3 	(obj:0)
$_34__1_x                                           3 	(obj:0)
$_34__1_y                                           3 	(obj:0)
$_34__1_z                                           1 	(obj:0)
$_46__1_y                                           3 	(obj:0)
$_46__1_z                                          12 	(obj:0)
$_36__1_x                                          -3 	(obj:0)
$_36__1_y                                          -3 	(obj:0)
$_36__1_z                                          17 	(obj:0)
$_172__1_x                                         -3 	(obj:0)
$_172__1_y                                          3 	(obj:0)
$_45__1_x                                          -3 	(obj:0)
$_45__1_y                                          -2 	(obj:0)
$_45__1_z                                          14 	(obj:0)
$_25__1_x                                           3 	(obj:0)
$_25__1_y                                          -3 	(obj:0)
$_130__1_x                                          3 	(obj:0)
$_130__1_y                                          3 	(obj:0)
$_130__1_z                                         13 	(obj:0)
$_25__1_z                                          25 	(obj:0)
$_172__1_z                                         11 	(obj:0)
$_37__1_x                                          -2 	(obj:0)
$_37__1_y                                          -3 	(obj:0)
$_37__1_z                                           4 	(obj:0)
$_33__1_z                                          12 	(obj:0)
$_158__1_x                                          3 	(obj:0)
$_51__1_x                                          -3 	(obj:0)
$_51__1_y                                           1 	(obj:0)
$_51__1_z                                          20 	(obj:0)
$_158__1_y                                         -1 	(obj:0)
$_158__1_z                                          6 	(obj:0)
$_55__1_x                                          -3 	(obj:0)
$_55__1_y                                           3 	(obj:0)
$_55__1_z                                           6 	(obj:0)
$_62__1_y                                          -3 	(obj:0)
$_137__1_x                                          3 	(obj:0)
$_151__1_x                                          3 	(obj:0)
$_151__1_y                                          3 	(obj:0)
$_151__1_z                                          5 	(obj:0)
$_35__1_x                                           3 	(obj:0)
$_35__1_y                                          -3 	(obj:0)
$_157__1_x                                         -3 	(obj:0)
$_157__1_y                                          1 	(obj:0)
$_157__1_z                                          9 	(obj:0)
$_35__1_z                                          18 	(obj:0)
$_137__1_y                                         -2 	(obj:0)
$_189__1_x                                         -3 	(obj:0)
$_189__1_y                                         -3 	(obj:0)
$_189__1_z                                         14 	(obj:0)
$_137__1_z                                         14 	(obj:0)
$_56__1_x                                           1 	(obj:0)
$_176__1_x                                          1 	(obj:0)
$_176__1_y                                          3 	(obj:0)
$_176__1_z                                         14 	(obj:0)
$_56__1_y                                          -3 	(obj:0)
$_56__1_z                                          18 	(obj:0)
$_28__1_x                                           3 	(obj:0)
$_28__1_y                                          -3 	(obj:0)
$_28__1_z                                          21 	(obj:0)
$_23__1_x                                           1 	(obj:0)
$_59__1_x                                           1 	(obj:0)
$_165__1_x                                          3 	(obj:0)
$_165__1_y                                          3 	(obj:0)
$_165__1_z                                         12 	(obj:0)
$_152__1_x                                          3 	(obj:0)
$_152__1_y                                          3 	(obj:0)
$_170__1_x                                         -3 	(obj:0)
$_170__1_y                                          3 	(obj:0)
$_170__1_z                                         14 	(obj:0)
$_152__1_z                                         19 	(obj:0)
thingy.thingy.chamber[3].first.ring__1_x                   -3 	(obj:0)
$_141__1_x                                         -3 	(obj:0)
$_141__1_y                                          1 	(obj:0)
$_141__1_z                                         10 	(obj:0)
thingy.thingy.chamber[3].first.ring__1_y                    1 	(obj:0)
$_65__1_x                                          -3 	(obj:0)
$_43__1_x                                           1 	(obj:0)
$_43__1_y                                          -3 	(obj:0)
$_43__1_z                                           7 	(obj:0)
$_65__1_y                                          -2 	(obj:0)
$_65__1_z                                          11 	(obj:0)
$_61__1_x                                           3 	(obj:0)
$_61__1_y                                           3 	(obj:0)
$_61__1_z                                          16 	(obj:0)
thingy.thingy.chamber[3].first.ring__1_z                    6 	(obj:0)
$_59__1_y                                           3 	(obj:0)
$_57__1_x                                           3 	(obj:0)
$_57__1_y                                          -3 	(obj:0)
$_57__1_z                                           3 	(obj:0)
$_147__1_x                                          3 	(obj:0)
$_147__1_y                                          3 	(obj:0)
$_135__1_x                                         -3 	(obj:0)
$_135__1_y                                         -3 	(obj:0)
$_135__1_z                                          8 	(obj:0)
$_147__1_z                                         18 	(obj:0)
$_59__1_z                                          15 	(obj:0)
$_22__1_x                                           3 	(obj:0)
$_22__1_y                                           3 	(obj:0)
$_22__1_z                                          25 	(obj:0)
$_156__1_x                                         -3 	(obj:0)
$_160__1_x                                          3 	(obj:0)
$_41__1_x                                           3 	(obj:0)
$_41__1_y                                          -3 	(obj:0)
$_41__1_z                                          12 	(obj:0)
$_160__1_y                                          3 	(obj:0)
$_160__1_z                                         14 	(obj:0)
$_154__1_x                                          3 	(obj:0)
$_154__1_y                                         -3 	(obj:0)
$_154__1_z                                          6 	(obj:0)
$_156__1_y                                          3 	(obj:0)
$_156__1_z                                         15 	(obj:0)
$_49__1_x                                          -2 	(obj:0)
$_49__1_y                                          -3 	(obj:0)
$_49__1_z                                          15 	(obj:0)
thingy.flush_stage_in_hole_y                        3 	(obj:0)
thingy.thingy.chamber[1].first.ring__1_x                    1 	(obj:0)
thingy.thingy.chamber[1].first.ring__1_y                   -3 	(obj:0)
thingy.thingy.chamber[1].first.ring__1_z                   10 	(obj:0)
thingy.flush_stage_in_hole_z                        6 	(obj:0)
$_23__1_y                                           3 	(obj:0)
$_132__1_x                                          3 	(obj:0)
$_132__1_y                                         -3 	(obj:0)
$_132__1_z                                          9 	(obj:0)
$_23__1_z                                          25 	(obj:0)
$_30__1_x                                          -3 	(obj:0)
thingy.flush_stage_out_hole_x                      -3 	(obj:0)
thingy.flush_stage_out_hole_y                       3 	(obj:0)
thingy.flush_stage_out_hole_z                      10 	(obj:0)
$_30__1_y                                           1 	(obj:0)
$_30__1_z                                          18 	(obj:0)
$_26__1_x                                          -3 	(obj:0)
$_26__1_y                                          -3 	(obj:0)
$_26__1_z                                          25 	(obj:0)
$_63__1_x                                          -2 	(obj:0)
$_63__1_y                                           3 	(obj:0)
$_48__1_x                                          -3 	(obj:0)
$_48__1_y                                           3 	(obj:0)
$_48__1_z                                          16 	(obj:0)
$_171__1_x                                          3 	(obj:0)
$_140__1_x                                          1 	(obj:0)
$_140__1_y                                         -3 	(obj:0)
$_140__1_z                                          9 	(obj:0)
$_171__1_z                                         10 	(obj:0)
$_63__1_z                                           7 	(obj:0)
$_42__1_x                                           3 	(obj:0)
$_42__1_y                                          -3 	(obj:0)
$_42__1_z                                          13 	(obj:0)
$_149__1_x                                          1 	(obj:0)
thingy.ctrl_stage_out_hole_x                        1 	(obj:0)
$_144__1_x                                          3 	(obj:0)
$_144__1_y                                         -3 	(obj:0)
$_144__1_z                                         11 	(obj:0)
thingy.ctrl_stage_out_hole_y                       -3 	(obj:0)
thingy.ctrl_stage_out_hole_z                        6 	(obj:0)
$_167__1_x                                         -3 	(obj:0)
$_167__1_y                                         -3 	(obj:0)
$_167__1_z                                          5 	(obj:0)
$_149__1_y                                          3 	(obj:0)
$_188__1_x                                         -3 	(obj:0)
$_39__1_x                                           3 	(obj:0)
$_39__1_y                                          -3 	(obj:0)
$_39__1_z                                          14 	(obj:0)
$_134__1_x                                          1 	(obj:0)
$_134__1_y                                         -3 	(obj:0)
$_40__1_x                                          -3 	(obj:0)
$_40__1_y                                          -3 	(obj:0)
$_40__1_z                                          22 	(obj:0)
$_134__1_z                                         16 	(obj:0)
$_188__1_y                                          1 	(obj:0)
$_155__1_x                                          3 	(obj:0)
$_155__1_y                                          1 	(obj:0)
$_155__1_z                                         16 	(obj:0)
$_188__1_z                                         14 	(obj:0)
$_139__1_x                                         -3 	(obj:0)
thingy.thingy.chamber[0].first.ring__1_x                    1 	(obj:0)
thingy.thingy.chamber[0].first.ring__1_y                   -3 	(obj:0)
thingy.thingy.chamber[0].first.ring__1_z                    8 	(obj:0)
$_139__1_y                                          3 	(obj:0)
$_139__1_z                                          8 	(obj:0)
$_52__1_x                                          -3 	(obj:0)
$_52__1_y                                           1 	(obj:0)
$_52__1_z                                          16 	(obj:0)
$_149__1_z                                         18 	(obj:0)
$_62__1_z                                          22 	(obj:0)
$_58__1_x                                          -3 	(obj:0)
$_58__1_y                                          -3 	(obj:0)
$_58__1_z                                           2 	(obj:0)
$_27__1_x                                           3 	(obj:0)
$_27__1_y                                          -3 	(obj:0)
$_173__1_x                                         -3 	(obj:0)
$_173__1_y                                          3 	(obj:0)
$_173__1_z                                          7 	(obj:0)
$_27__1_z                                          23 	(obj:0)
$_29__1_x                                          -3 	(obj:0)
thingy.thingy.chamber[2].first.ring__1_x                    1 	(obj:0)
thingy.thingy.chamber[2].first.ring__1_y                    3 	(obj:0)
thingy.thingy.chamber[2].first.ring__1_z                    7 	(obj:0)
$_29__1_y                                          -3 	(obj:0)
$_163__1_x                                          3 	(obj:0)
$_47__1_x                                           3 	(obj:0)
$_47__1_y                                          -3 	(obj:0)
$_47__1_z                                          15 	(obj:0)
$_163__1_z                                         14 	(obj:0)
$_174__1_x                                          1 	(obj:0)
$_174__1_y                                          3 	(obj:0)
$_174__1_z                                          6 	(obj:0)
$_29__1_z                                          15 	(obj:0)
$_62__1_x                                           1 	(obj:0)
